<number of tasks>
50

<cycle time>
1000

<order strength>
0.197


<task times>
1 551
2 575
3 725
4 528
5 339
6 738
7 418
8 756
9 484
10 655
11 676
12 474
13 537
14 408
15 528
16 321
17 680
18 465
19 399
20 564
21 482
22 607
23 540
24 596
25 676
26 609
27 601
28 665
29 433
30 387
31 286
32 679
33 423
34 518
35 306
36 324
37 404
38 399
39 448
40 592
41 344
42 435
43 528
44 258
45 470
46 532
47 640
48 444
49 534
50 566

<precedence relations>
1,31
2,6
2,8
2,10
3,5
3,7
4,9
5,31
6,12
7,11
8,13
9,15
10,14
10,16
11,17
12,19
13,18
13,22
15,20
15,21
17,27
18,24
18,25
18,26
18,28
20,30
21,29
22,23
23,31
24,31
25,32
26,33
27,35
28,34
29,37
30,36
31,38
31,39
31,40
31,41
31,42
31,46
31,47
32,44
33,44
34,43
36,45
38,48
40,50
43,48
44,49

<end>
